(set-logic QF_NRA)
; benchmark generated from python API
(set-info :status unknown)
(declare-fun v1y () Real)
(declare-fun oy () Real)
(declare-fun v1x () Real)
(declare-fun R2 () Real)
(declare-fun y1y () Real)
(declare-fun xy () Real)
(declare-fun y1x () Real)
(declare-fun xx () Real)
(declare-fun rho2 () Real)
(declare-fun b1y () Real)
(declare-fun b1x () Real)
(declare-fun b2y () Real)
(declare-fun b2x () Real)
(declare-fun b3y () Real)
(declare-fun b3x () Real)
(assert
 (let ((?x223 (* (- 1.0) v1x)))
 (let ((?x31 (* (- 1.0) R2)))
 (let ((?x308 (+ (+ (+ (+ (/ 1.0 4.0) (* oy oy)) (* v1x v1x)) (* v1y v1y)) ?x31)))
 (= (+ (+ ?x308 ?x223) (* (* (- 2.0) oy) v1y)) 0.0)))))
(assert
 (= (+ (+ (/ 1.0 4.0) (* oy oy)) (* (- 1.0) R2)) 0.0))
(assert
 (let ((?x272 (* (- 1.0) rho2)))
 (let ((?x476 (* y1y y1y)))
 (let ((?x285 (+ (+ (+ (+ (* xx xx) (* xy xy)) (* y1x y1x)) ?x476) ?x272)))
 (= (+ (+ ?x285 (* (* (- 2.0) xx) y1x)) (* (* (- 2.0) xy) y1y)) 0.0)))))
(assert
 (let ((?x272 (* (- 1.0) rho2)))
 (let ((?x167 (* xy xy)))
 (let ((?x467 (+ (+ (+ (+ (* b1x b1x) (* b1y b1y)) (* xx xx)) ?x167) ?x272)))
 (= (+ (+ ?x467 (* (* (- 2.0) b1x) xx)) (* (* (- 2.0) b1y) xy)) 0.0)))))
(assert
 (let ((?x272 (* (- 1.0) rho2)))
 (let ((?x167 (* xy xy)))
 (let ((?x459 (+ (+ (+ (+ (* b2x b2x) (* b2y b2y)) (* xx xx)) ?x167) ?x272)))
 (= (+ (+ ?x459 (* (* (- 2.0) b2x) xx)) (* (* (- 2.0) b2y) xy)) 0.0)))))
(assert
 (let ((?x272 (* (- 1.0) rho2)))
 (let ((?x167 (* xy xy)))
 (let ((?x275 (+ (+ (+ (+ (* b3x b3x) (* b3y b3y)) (* xx xx)) ?x167) ?x272)))
 (= (+ (+ ?x275 (* (* (- 2.0) b3x) xx)) (* (* (- 2.0) b3y) xy)) 0.0)))))
(assert
 (let ((?x222 (+ (+ (+ (+ (- (/ 1.0 4.0)) R2) xx) (* (- 1.0) (* oy oy))) (* (- 1.0) (* xx xx)))))
 (>= (+ (+ ?x222 (* (- 1.0) (* xy xy))) (* (* 2.0 oy) xy)) 0.0)))
(assert
 (let ((?x417 (+ (+ (+ (+ (- (/ 1.0 4.0)) R2) y1x) (* (- 1.0) (* oy oy))) (* (- 1.0) (* y1x y1x)))))
 (>= (+ (+ ?x417 (* (- 1.0) (* y1y y1y))) (* (* 2.0 oy) y1y)) 0.0)))
(assert
 (let ((?x289 (* oy oy)))
 (let ((?x411 (* (- 1.0) ?x289)))
 (let ((?x473 (+ (+ (+ (+ (- (/ 1.0 4.0)) R2) b1x) (* (- 1.0) (* b1x b1x))) (* (- 1.0) (* b1y b1y)))))
 (>= (+ (+ ?x473 ?x411) (* (* 2.0 b1y) oy)) 0.0)))))
(assert
 (let ((?x289 (* oy oy)))
 (let ((?x411 (* (- 1.0) ?x289)))
 (let ((?x437 (+ (+ (+ (+ (- (/ 1.0 4.0)) R2) b2x) (* (- 1.0) (* b2x b2x))) (* (- 1.0) (* b2y b2y)))))
 (>= (+ (+ ?x437 ?x411) (* (* 2.0 b2y) oy)) 0.0)))))
(assert
 (let ((?x289 (* oy oy)))
 (let ((?x411 (* (- 1.0) ?x289)))
 (let ((?x209 (+ (+ (+ (+ (- (/ 1.0 4.0)) R2) b3x) (* (- 1.0) (* b3x b3x))) (* (- 1.0) (* b3y b3y)))))
 (>= (+ (+ ?x209 ?x411) (* (* 2.0 b3y) oy)) 0.0)))))
(assert
 (>= (+ (+ (* v1x v1x) (* v1y v1y)) (* (- 1.0) v1x)) 0.0))
(assert
 (>= v1x 0.0))
(assert
 (>= (+ 1.0 (* (- 1.0) v1x)) 0.0))
(assert
 (> R2 0.0))
(assert
 (> rho2 0.0))
(assert
 (let ((?x264 (* (- 1.0) v1y)))
 (let ((?x401 (* ?x264 xy)))
 (> ?x401 0.0))))
(assert
 (let ((?x212 (+ (+ (* v1y v1y) (* (* (- 1.0) v1y) xy)) (* (* (- 1.0) xx) (* v1y v1y)))))
 (> (+ ?x212 (* (* v1x v1y) xy)) 0.0)))
(assert
 (> (+ (* xx (* v1y v1y)) (* (* (* (- 1.0) v1x) v1y) xy)) 0.0))
(assert
 (let ((?x264 (* (- 1.0) v1y)))
 (let ((?x403 (* ?x264 y1y)))
 (> ?x403 0.0))))
(assert
 (let ((?x487 (+ (+ (* v1y v1y) (* (* (- 1.0) v1y) y1y)) (* (* (- 1.0) y1x) (* v1y v1y)))))
 (> (+ ?x487 (* (* v1x v1y) y1y)) 0.0)))
(assert
 (> (+ (* y1x (* v1y v1y)) (* (* (* (- 1.0) v1x) v1y) y1y)) 0.0))
(assert
 (> (* b1y v1y) 0.0))
(assert
 (let ((?x199 (* b1y v1x)))
 (let ((?x390 (* ?x199 v1y)))
 (let ((?x386 (+ (+ (* v1y v1y) (* (* (- 1.0) b1x) (* v1y v1y))) (* (* (- 1.0) b1y) v1y))))
 (> (+ ?x386 ?x390) 0.0)))))
(assert
 (> (+ (* (* (- 1.0) b1x) (* v1y v1y)) (* (* b1y v1x) v1y)) 0.0))
(assert
 (> (* b2y v1y) 0.0))
(assert
 (let ((?x373 (* b2y v1x)))
 (let ((?x318 (* ?x373 v1y)))
 (let ((?x339 (+ (+ (* v1y v1y) (* (* (- 1.0) b2x) (* v1y v1y))) (* (* (- 1.0) b2y) v1y))))
 (> (+ ?x339 ?x318) 0.0)))))
(assert
 (> (+ (* (* (- 1.0) b2x) (* v1y v1y)) (* (* b2y v1x) v1y)) 0.0))
(assert
 (> (* b3y v1y) 0.0))
(assert
 (let ((?x361 (* b3y v1x)))
 (let ((?x367 (* ?x361 v1y)))
 (let ((?x382 (+ (+ (* v1y v1y) (* (* (- 1.0) b3x) (* v1y v1y))) (* (* (- 1.0) b3y) v1y))))
 (> (+ ?x382 ?x367) 0.0)))))
(assert
 (> (+ (* (* (- 1.0) b3x) (* v1y v1y)) (* (* b3y v1x) v1y)) 0.0))
(assert
 (> (+ (* xy y1x) (* (* (- 1.0) xx) y1y)) 0.0))
(assert
 (let ((?x248 (* (- 1.0) y1y)))
 (> ?x248 0.0)))
(assert
 (> (+ (* v1y y1x) (* (* (- 1.0) v1x) y1y)) 0.0))
(assert
 (> (+ (* b1y y1x) (* (* (- 1.0) b1x) y1y)) 0.0))
(assert
 (> (+ (* b2y y1x) (* (* (- 1.0) b2x) y1y)) 0.0))
(assert
 (> (+ (* b3y y1x) (* (* (- 1.0) b3x) y1y)) 0.0))
(assert
 (let ((?x343 (* (- 1.0) xy)))
 (> ?x343 0.0)))
(assert
 (> (+ (* v1y xx) (* (* (- 1.0) v1x) xy)) 0.0))
(assert
 (> (+ (* b1y xx) (* (* (- 1.0) b1x) xy)) 0.0))
(assert
 (> (+ (* b2y xx) (* (* (- 1.0) b2x) xy)) 0.0))
(assert
 (> (+ (* b3y xx) (* (* (- 1.0) b3x) xy)) 0.0))
(assert
 (> v1y 0.0))
(assert
 (> b1y 0.0))
(assert
 (> b2y 0.0))
(assert
 (> b3y 0.0))
(assert
 (> (+ (* b1y v1x) (* (* (- 1.0) b1x) v1y)) 0.0))
(assert
 (> (+ (* b2y v1x) (* (* (- 1.0) b2x) v1y)) 0.0))
(assert
 (> (+ (* b3y v1x) (* (* (- 1.0) b3x) v1y)) 0.0))
(assert
 (> (+ (* b1x b2y) (* (* (- 1.0) b1y) b2x)) 0.0))
(assert
 (> (+ (* b1x b3y) (* (* (- 1.0) b1y) b3x)) 0.0))
(assert
 (> (+ (* b2x b3y) (* (* (- 1.0) b2y) b3x)) 0.0))
(assert
 (let ((?x15 (* (- 1.0) xx)))
 (let ((?x319 (* ?x15 y1y)))
 (> (+ (+ (+ y1y (* (- 1.0) xy)) (* xy y1x)) ?x319) 0.0))))
(assert
 (let ((?x15 (* (- 1.0) xx)))
 (let ((?x319 (* ?x15 y1y)))
 (let ((?x264 (* (- 1.0) v1y)))
 (let ((?x192 (* ?x264 y1x)))
 (let ((?x223 (* (- 1.0) v1x)))
 (let ((?x344 (* ?x223 xy)))
 (let ((?x25 (+ (+ (+ (+ (* v1x y1y) (* v1y xx)) (* xy y1x)) ?x344) ?x192)))
 (> (+ ?x25 ?x319) 0.0)))))))))
(assert
 (let ((?x15 (* (- 1.0) xx)))
 (let ((?x319 (* ?x15 y1y)))
 (let ((?x391 (* (- 1.0) b1y)))
 (let ((?x197 (* ?x391 y1x)))
 (let ((?x345 (* (- 1.0) b1x)))
 (let ((?x299 (* ?x345 xy)))
 (let ((?x181 (+ (+ (+ (+ (* b1x y1y) (* b1y xx)) (* xy y1x)) ?x299) ?x197)))
 (> (+ ?x181 ?x319) 0.0)))))))))
(assert
 (let ((?x15 (* (- 1.0) xx)))
 (let ((?x319 (* ?x15 y1y)))
 (let ((?x388 (* (- 1.0) b2y)))
 (let ((?x168 (* ?x388 y1x)))
 (let ((?x379 (* (- 1.0) b2x)))
 (let ((?x321 (* ?x379 xy)))
 (let ((?x165 (+ (+ (+ (+ (* b2x y1y) (* b2y xx)) (* xy y1x)) ?x321) ?x168)))
 (> (+ ?x165 ?x319) 0.0)))))))))
(assert
 (let ((?x15 (* (- 1.0) xx)))
 (let ((?x319 (* ?x15 y1y)))
 (let ((?x236 (* (- 1.0) b3y)))
 (let ((?x230 (* ?x236 y1x)))
 (let ((?x365 (* (- 1.0) b3x)))
 (let ((?x316 (* ?x365 xy)))
 (let ((?x154 (+ (+ (+ (+ (* b3x y1y) (* b3y xx)) (* xy y1x)) ?x316) ?x230)))
 (> (+ ?x154 ?x319) 0.0)))))))))
(assert
 (let ((?x264 (* (- 1.0) v1y)))
 (let ((?x192 (* ?x264 y1x)))
 (> (+ (+ (+ v1y (* (- 1.0) y1y)) (* v1x y1y)) ?x192) 0.0))))
(assert
 (let ((?x391 (* (- 1.0) b1y)))
 (let ((?x197 (* ?x391 y1x)))
 (> (+ (+ (+ b1y (* (- 1.0) y1y)) (* b1x y1y)) ?x197) 0.0))))
(assert
 (let ((?x388 (* (- 1.0) b2y)))
 (let ((?x168 (* ?x388 y1x)))
 (> (+ (+ (+ b2y (* (- 1.0) y1y)) (* b2x y1y)) ?x168) 0.0))))
(assert
 (let ((?x236 (* (- 1.0) b3y)))
 (let ((?x230 (* ?x236 y1x)))
 (> (+ (+ (+ b3y (* (- 1.0) y1y)) (* b3x y1y)) ?x230) 0.0))))
(assert
 (let ((?x223 (* (- 1.0) v1x)))
 (let ((?x355 (* ?x223 y1y)))
 (let ((?x391 (* (- 1.0) b1y)))
 (let ((?x197 (* ?x391 y1x)))
 (let ((?x345 (* (- 1.0) b1x)))
 (let ((?x266 (* ?x345 v1y)))
 (let ((?x325 (+ (+ (+ (+ (* b1x y1y) (* b1y v1x)) (* v1y y1x)) ?x266) ?x197)))
 (> (+ ?x325 ?x355) 0.0)))))))))
(assert
 (let ((?x223 (* (- 1.0) v1x)))
 (let ((?x355 (* ?x223 y1y)))
 (let ((?x388 (* (- 1.0) b2y)))
 (let ((?x168 (* ?x388 y1x)))
 (let ((?x379 (* (- 1.0) b2x)))
 (let ((?x263 (* ?x379 v1y)))
 (let ((?x82 (+ (+ (+ (+ (* b2x y1y) (* b2y v1x)) (* v1y y1x)) ?x263) ?x168)))
 (> (+ ?x82 ?x355) 0.0)))))))))
(assert
 (let ((?x223 (* (- 1.0) v1x)))
 (let ((?x355 (* ?x223 y1y)))
 (let ((?x236 (* (- 1.0) b3y)))
 (let ((?x230 (* ?x236 y1x)))
 (let ((?x365 (* (- 1.0) b3x)))
 (let ((?x253 (* ?x365 v1y)))
 (let ((?x147 (+ (+ (+ (+ (* b3x y1y) (* b3y v1x)) (* v1y y1x)) ?x253) ?x230)))
 (> (+ ?x147 ?x355) 0.0)))))))))
(assert
 (let ((?x388 (* (- 1.0) b2y)))
 (let ((?x168 (* ?x388 y1x)))
 (let ((?x391 (* (- 1.0) b1y)))
 (let ((?x235 (* ?x391 b2x)))
 (let ((?x345 (* (- 1.0) b1x)))
 (let ((?x188 (* ?x345 y1y)))
 (let ((?x130 (+ (+ (+ (+ (* b1x b2y) (* b1y y1x)) (* b2x y1y)) ?x188) ?x235)))
 (> (+ ?x130 ?x168) 0.0)))))))))
(assert
 (let ((?x236 (* (- 1.0) b3y)))
 (let ((?x230 (* ?x236 y1x)))
 (let ((?x391 (* (- 1.0) b1y)))
 (let ((?x215 (* ?x391 b3x)))
 (let ((?x345 (* (- 1.0) b1x)))
 (let ((?x188 (* ?x345 y1y)))
 (let ((?x70 (+ (+ (+ (+ (* b1x b3y) (* b1y y1x)) (* b3x y1y)) ?x188) ?x215)))
 (> (+ ?x70 ?x230) 0.0)))))))))
(assert
 (let ((?x236 (* (- 1.0) b3y)))
 (let ((?x230 (* ?x236 y1x)))
 (let ((?x388 (* (- 1.0) b2y)))
 (let ((?x208 (* ?x388 b3x)))
 (let ((?x379 (* (- 1.0) b2x)))
 (let ((?x335 (* ?x379 y1y)))
 (let ((?x119 (+ (+ (+ (+ (* b2x b3y) (* b2y y1x)) (* b3x y1y)) ?x335) ?x208)))
 (> (+ ?x119 ?x230) 0.0)))))))))
(assert
 (let ((?x126 (+ (+ (+ v1y (* (- 1.0) xy)) (* v1x xy)) (* (* (- 1.0) v1y) xx))))
 (> ?x126 0.0)))
(assert
 (let ((?x391 (* (- 1.0) b1y)))
 (let ((?x132 (* ?x391 xx)))
 (> (+ (+ (+ b1y (* (- 1.0) xy)) (* b1x xy)) ?x132) 0.0))))
(assert
 (let ((?x388 (* (- 1.0) b2y)))
 (let ((?x113 (* ?x388 xx)))
 (> (+ (+ (+ b2y (* (- 1.0) xy)) (* b2x xy)) ?x113) 0.0))))
(assert
 (let ((?x236 (* (- 1.0) b3y)))
 (let ((?x57 (* ?x236 xx)))
 (> (+ (+ (+ b3y (* (- 1.0) xy)) (* b3x xy)) ?x57) 0.0))))
(assert
 (let ((?x223 (* (- 1.0) v1x)))
 (let ((?x344 (* ?x223 xy)))
 (let ((?x391 (* (- 1.0) b1y)))
 (let ((?x132 (* ?x391 xx)))
 (let ((?x345 (* (- 1.0) b1x)))
 (let ((?x266 (* ?x345 v1y)))
 (let ((?x41 (+ (+ (+ (+ (* b1x xy) (* b1y v1x)) (* v1y xx)) ?x266) ?x132)))
 (> (+ ?x41 ?x344) 0.0)))))))))
(assert
 (let ((?x223 (* (- 1.0) v1x)))
 (let ((?x344 (* ?x223 xy)))
 (let ((?x388 (* (- 1.0) b2y)))
 (let ((?x113 (* ?x388 xx)))
 (let ((?x379 (* (- 1.0) b2x)))
 (let ((?x263 (* ?x379 v1y)))
 (let ((?x100 (+ (+ (+ (+ (* b2x xy) (* b2y v1x)) (* v1y xx)) ?x263) ?x113)))
 (> (+ ?x100 ?x344) 0.0)))))))))
(assert
 (let ((?x223 (* (- 1.0) v1x)))
 (let ((?x344 (* ?x223 xy)))
 (let ((?x236 (* (- 1.0) b3y)))
 (let ((?x57 (* ?x236 xx)))
 (let ((?x365 (* (- 1.0) b3x)))
 (let ((?x253 (* ?x365 v1y)))
 (let ((?x107 (+ (+ (+ (+ (* b3x xy) (* b3y v1x)) (* v1y xx)) ?x253) ?x57)))
 (> (+ ?x107 ?x344) 0.0)))))))))
(assert
 (let ((?x388 (* (- 1.0) b2y)))
 (let ((?x113 (* ?x388 xx)))
 (let ((?x391 (* (- 1.0) b1y)))
 (let ((?x235 (* ?x391 b2x)))
 (let ((?x345 (* (- 1.0) b1x)))
 (let ((?x299 (* ?x345 xy)))
 (let ((?x44 (+ (+ (+ (+ (* b1x b2y) (* b1y xx)) (* b2x xy)) ?x299) ?x235)))
 (> (+ ?x44 ?x113) 0.0)))))))))
(assert
 (let ((?x236 (* (- 1.0) b3y)))
 (let ((?x57 (* ?x236 xx)))
 (let ((?x391 (* (- 1.0) b1y)))
 (let ((?x215 (* ?x391 b3x)))
 (let ((?x345 (* (- 1.0) b1x)))
 (let ((?x299 (* ?x345 xy)))
 (let ((?x301 (+ (+ (+ (+ (* b1x b3y) (* b1y xx)) (* b3x xy)) ?x299) ?x215)))
 (> (+ ?x301 ?x57) 0.0)))))))))
(assert
 (let ((?x236 (* (- 1.0) b3y)))
 (let ((?x57 (* ?x236 xx)))
 (let ((?x388 (* (- 1.0) b2y)))
 (let ((?x208 (* ?x388 b3x)))
 (let ((?x379 (* (- 1.0) b2x)))
 (let ((?x321 (* ?x379 xy)))
 (let ((?x72 (+ (+ (+ (+ (* b2x b3y) (* b2y xx)) (* b3x xy)) ?x321) ?x208)))
 (> (+ ?x72 ?x57) 0.0)))))))))
(assert
 (let ((?x345 (* (- 1.0) b1x)))
 (let ((?x266 (* ?x345 v1y)))
 (> (+ (+ (+ v1y (* (- 1.0) b1y)) (* b1y v1x)) ?x266) 0.0))))
(assert
 (let ((?x379 (* (- 1.0) b2x)))
 (let ((?x263 (* ?x379 v1y)))
 (> (+ (+ (+ v1y (* (- 1.0) b2y)) (* b2y v1x)) ?x263) 0.0))))
(assert
 (let ((?x365 (* (- 1.0) b3x)))
 (let ((?x253 (* ?x365 v1y)))
 (> (+ (+ (+ v1y (* (- 1.0) b3y)) (* b3y v1x)) ?x253) 0.0))))
(assert
 (let ((?x391 (* (- 1.0) b1y)))
 (let ((?x235 (* ?x391 b2x)))
 (> (+ (+ (+ b1y (* (- 1.0) b2y)) (* b1x b2y)) ?x235) 0.0))))
(assert
 (let ((?x391 (* (- 1.0) b1y)))
 (let ((?x215 (* ?x391 b3x)))
 (> (+ (+ (+ b1y (* (- 1.0) b3y)) (* b1x b3y)) ?x215) 0.0))))
(assert
 (let ((?x388 (* (- 1.0) b2y)))
 (let ((?x208 (* ?x388 b3x)))
 (> (+ (+ (+ b2y (* (- 1.0) b3y)) (* b2x b3y)) ?x208) 0.0))))
(assert
 (let ((?x391 (* (- 1.0) b1y)))
 (let ((?x235 (* ?x391 b2x)))
 (let ((?x345 (* (- 1.0) b1x)))
 (let ((?x266 (* ?x345 v1y)))
 (let ((?x61 (+ (+ (+ (+ (* b1x b2y) (* b1y v1x)) (* b2x v1y)) ?x266) ?x235)))
 (> (+ ?x61 (* (* (- 1.0) b2y) v1x)) 0.0)))))))
(assert
 (let ((?x236 (* (- 1.0) b3y)))
 (let ((?x50 (* ?x236 v1x)))
 (let ((?x391 (* (- 1.0) b1y)))
 (let ((?x215 (* ?x391 b3x)))
 (let ((?x345 (* (- 1.0) b1x)))
 (let ((?x266 (* ?x345 v1y)))
 (let ((?x276 (+ (+ (+ (+ (* b1x b3y) (* b1y v1x)) (* b3x v1y)) ?x266) ?x215)))
 (> (+ ?x276 ?x50) 0.0)))))))))
(assert
 (let ((?x236 (* (- 1.0) b3y)))
 (let ((?x50 (* ?x236 v1x)))
 (let ((?x388 (* (- 1.0) b2y)))
 (let ((?x208 (* ?x388 b3x)))
 (let ((?x379 (* (- 1.0) b2x)))
 (let ((?x263 (* ?x379 v1y)))
 (let ((?x16 (+ (+ (+ (+ (* b2x b3y) (* b2y v1x)) (* b3x v1y)) ?x263) ?x208)))
 (> (+ ?x16 ?x50) 0.0)))))))))
(assert
 (let ((?x388 (* (- 1.0) b2y)))
(let ((?x208 (* ?x388 b3x)))
(let ((?x391 (* (- 1.0) b1y)))
(let ((?x235 (* ?x391 b2x)))
(let ((?x32 (+ (+ (+ (* b1x b2y) (* b1y b3x)) (* b2x b3y)) (* (* (- 1.0) b1x) b3y))))
(> (+ (+ ?x32 ?x235) ?x208) 0.0)))))))
(check-sat)
